(set-info :smt-lib-version 2.6)
(set-info :category "crafted")
(set-logic QF_FF)
(define-sort FF0 () (_ FiniteField 52435875175126190479447740508185965837690552500527637822603658699938581184513))
(declare-fun j () Bool)
(declare-fun b () Bool)
(declare-fun d () Bool)
(declare-fun c () Bool)
(declare-fun a () Bool)
(declare-fun l () Bool)
(declare-fun e () Bool)
(declare-fun f () Bool)
(declare-fun i () Bool)
(declare-fun k () Bool)
(declare-fun g () Bool)
(declare-fun h () Bool)
(declare-fun return_n10 () FF0)
(declare-fun is_zero_n18 () FF0)
(declare-fun mul_n26 () FF0)
(declare-fun mul_n13 () FF0)
(declare-fun mul_n24 () FF0)
(declare-fun is_zero_inv_n27 () FF0)
(declare-fun k_n3 () FF0)
(declare-fun mul_n25 () FF0)
(declare-fun j_n5 () FF0)
(declare-fun c_n8 () FF0)
(declare-fun i_n7 () FF0)
(declare-fun mul_n23 () FF0)
(declare-fun is_zero_n22 () FF0)
(declare-fun mul_n19 () FF0)
(declare-fun d_n6 () FF0)
(declare-fun h_n9 () FF0)
(declare-fun mul_n15 () FF0)
(declare-fun mul_n14 () FF0)
(declare-fun mul_n20 () FF0)
(declare-fun g_n0 () FF0)
(declare-fun mul_n16 () FF0)
(declare-fun is_zero_inv_n21 () FF0)
(declare-fun l_n1 () FF0)
(declare-fun a_n12 () FF0)
(declare-fun is_zero_inv_n17 () FF0)
(declare-fun e_n4 () FF0)
(declare-fun f_n2 () FF0)
(declare-fun b_n11 () FF0)
(assert 
  (let ((let0 j))
  (let ((let1 (not let0)))
  (let ((let2 b))
  (let ((let3 (=> let2 let1)))
  (let ((let4 (not let3)))
  (let ((let5 d))
  (let ((let6 c))
  (let ((let7 a))
  (let ((let8 (ite let5 let7 let6)))
  (let ((let9 (ite let8 let2 let5)))
  (let ((let10 l))
  (let ((let11 e))
  (let ((let12 f))
  (let ((let13 (=> let12 let11)))
  (let ((let14 (or let13 let3 let7 let10 let9)))
  (let ((let15 (not let14)))
  (let ((let16 i))
  (let ((let17 k))
  (let ((let18 g))
  (let ((let19 h))
  (let ((let20 (= let19 let9)))
  (let ((let21 (ite let19 let16 let20)))
  (let ((let22 (or let13 let21 let18 let8 let0)))
  (let ((let23 (=> let22 let17)))
  (let ((let24 (=> let23 let16)))
  (let ((let25 (=> let6 let1)))
  (let ((let26 (or let25 let17)))
  (let ((let27 (or let26 let24 let15 let4)))
  (let ((let28 return_n10))
  (let ((let29 (as ff1 FF0)))
  (let ((let30 (= let29 let28)))
  (let ((let31 (= let30 let27)))
  (let ((let32 (as ff0 FF0)))
  (let ((let33 (= let32 let28)))
  (let ((let34 (or let30 let33)))
  (let ((let35 (and let34 let31)))
  (let ((let36 (as ff2 FF0)))
  (let ((let37 is_zero_n18))
  (let ((let38 (as ff52435875175126190479447740508185965837690552500527637822603658699938581184512 FF0)))
  (let ((let39 mul_n26))
  (let ((let40 (ff.mul let39 let38)))
  (let ((let41 mul_n13))
  (let ((let42 mul_n24))
  (let ((let43 (ff.mul let42 let38)))
  (let ((let44 (ff.add let43 let41 let40 let37 let36)))
  (let ((let45 is_zero_inv_n27))
  (let ((let46 (ff.mul let45 let44)))
  (let ((let47 (= let46 let28)))
  (let ((let48 k_n3))
  (let ((let49 (ff.mul let48 let38)))
  (let ((let50 (ff.add let49 let29)))
  (let ((let51 mul_n25))
  (let ((let52 (ff.mul let51 let50)))
  (let ((let53 (= let52 let39)))
  (let ((let54 j_n5))
  (let ((let55 c_n8))
  (let ((let56 (ff.mul let55 let54)))
  (let ((let57 (= let56 let51)))
  (let ((let58 i_n7))
  (let ((let59 (ff.mul let58 let38)))
  (let ((let60 (ff.add let59 let29)))
  (let ((let61 mul_n23))
  (let ((let62 (ff.mul let61 let38)))
  (let ((let63 (ff.add let62 let29)))
  (let ((let64 (ff.mul let63 let60)))
  (let ((let65 (= let64 let42)))
  (let ((let66 is_zero_n22))
  (let ((let67 (ff.mul let66 let38)))
  (let ((let68 (ff.add let67 let29)))
  (let ((let69 (ff.mul let68 let50)))
  (let ((let70 (= let69 let61)))
  (let ((let71 mul_n19))
  (let ((let72 d_n6))
  (let ((let73 (ff.mul let72 let38)))
  (let ((let74 h_n9))
  (let ((let75 (ff.mul let74 let38)))
  (let ((let76 mul_n15))
  (let ((let77 (ff.mul let76 let38)))
  (let ((let78 mul_n14))
  (let ((let79 mul_n20))
  (let ((let80 g_n0))
  (let ((let81 mul_n16))
  (let ((let82 (ff.mul let81 let38)))
  (let ((let83 (ff.add let82 let80 let79 let78 let55 let54 let77 let75 let73 let71 let36)))
  (let ((let84 (ff.mul let66 let83)))
  (let ((let85 (= let84 let32)))
  (let ((let86 is_zero_inv_n21))
  (let ((let87 (ff.mul let86 let83)))
  (let ((let88 (= let87 let68)))
  (let ((let89 (ff.mul let71 let38)))
  (let ((let90 (ff.add let76 let58 let74 let72 let89 let38)))
  (let ((let91 (ff.mul let74 let90)))
  (let ((let92 (= let91 let79)))
  (let ((let93 (ff.add let72 let76)))
  (let ((let94 (ff.mul let74 let36)))
  (let ((let95 (ff.mul let94 let93)))
  (let ((let96 (= let95 let71)))
  (let ((let97 l_n1))
  (let ((let98 a_n12))
  (let ((let99 (ff.mul let41 let38)))
  (let ((let100 (ff.add let82 let99 let76 let98 let97 let72 let36)))
  (let ((let101 (ff.mul let37 let100)))
  (let ((let102 (= let101 let32)))
  (let ((let103 (ff.mul let37 let38)))
  (let ((let104 (ff.add let103 let29)))
  (let ((let105 is_zero_inv_n17))
  (let ((let106 (ff.mul let105 let100)))
  (let ((let107 (= let106 let104)))
  (let ((let108 e_n4))
  (let ((let109 (ff.mul let108 let38)))
  (let ((let110 (ff.add let109 let29)))
  (let ((let111 f_n2))
  (let ((let112 (ff.mul let111 let110)))
  (let ((let113 (= let112 let81)))
  (let ((let114 b_n11))
  (let ((let115 (ff.add let73 let114)))
  (let ((let116 (ff.add let55 let78)))
  (let ((let117 (ff.mul let116 let115)))
  (let ((let118 (= let117 let76)))
  (let ((let119 (ff.mul let55 let38)))
  (let ((let120 (ff.add let98 let119)))
  (let ((let121 (ff.mul let72 let120)))
  (let ((let122 (= let121 let78)))
  (let ((let123 (ff.mul let114 let54)))
  (let ((let124 (= let123 let41)))
  (let ((let125 (and let124 let122 let118 let113 let107 let102 let96 let92 let88 let85 let70 let65 let57 let53 let47)))
  (let ((let126 (ite let6 let29 let32)))
  (let ((let127 (= let55 let126)))
  (let ((let128 (ite let0 let29 let32)))
  (let ((let129 (= let54 let128)))
  (let ((let130 (ite let19 let29 let32)))
  (let ((let131 (= let74 let130)))
  (let ((let132 (ite let10 let29 let32)))
  (let ((let133 (= let97 let132)))
  (let ((let134 (ite let18 let29 let32)))
  (let ((let135 (= let80 let134)))
  (let ((let136 (ite let5 let29 let32)))
  (let ((let137 (= let72 let136)))
  (let ((let138 (ite let2 let29 let32)))
  (let ((let139 (= let114 let138)))
  (let ((let140 (ite let7 let29 let32)))
  (let ((let141 (= let98 let140)))
  (let ((let142 (ite let16 let29 let32)))
  (let ((let143 (= let58 let142)))
  (let ((let144 (ite let11 let29 let32)))
  (let ((let145 (= let108 let144)))
  (let ((let146 (ite let12 let29 let32)))
  (let ((let147 (= let111 let146)))
  (let ((let148 (ite let17 let29 let32)))
  (let ((let149 (= let48 let148)))
  (let ((let150 (and let149 let147 let145 let143 let141 let139 let137 let135 let133 let131 let129 let127)))
  (let ((let151 (and let150 let125)))
  (let ((let152 (=> let151 let35)))
  (let ((let153 (not let152)))
  let153
))))))))))))))))))))))))))))))))))))))))))))))))))))))))))))))))))))))))))))))))))))))))))))))))))))))))))))))))))))))))))))))))))))))))))))))))))))))))))
)
(check-sat)
